Route #1: 6 51 17 40 12 26
Route #2: 7 53 14 59 11
Route #3: 58 38 10 31 39
Route #4: 9 25 55 18 50 32 44
Route #5: 3 24 49 56 23 63 16
Route #6: 33 1 43 41 42 64 22
Route #7: 2 62 28 61 21
Route #8: 47 36 60 20 37 15 52 34
Route #9: 46 8 35 19 54 13 57 27
Route #10: 30 48 5 29 45 4
Cost 817